(set-info :smt-lib-version 2.6)
(set-logic QF_UFLRA)
(set-info :source |
MathSat group

|)
(set-info :category "random")
(set-info :status unsat)
(declare-fun f0_1 (Real) Real)
(declare-fun f0_2 (Real Real) Real)
(declare-fun f0_3 (Real Real Real) Real)
(declare-fun f0_4 (Real Real Real Real) Real)
(declare-fun f1_1 (Real) Real)
(declare-fun f1_2 (Real Real) Real)
(declare-fun f1_3 (Real Real Real) Real)
(declare-fun f1_4 (Real Real Real Real) Real)
(declare-fun x0 () Real)
(declare-fun x1 () Real)
(declare-fun x2 () Real)
(declare-fun x3 () Real)
(declare-fun x4 () Real)
(declare-fun x5 () Real)
(declare-fun x6 () Real)
(declare-fun x7 () Real)
(declare-fun x8 () Real)
(declare-fun x9 () Real)
(declare-fun x10 () Real)
(declare-fun x11 () Real)
(declare-fun x12 () Real)
(declare-fun x13 () Real)
(declare-fun x14 () Real)
(declare-fun x15 () Real)
(declare-fun x16 () Real)
(declare-fun x17 () Real)
(declare-fun x18 () Real)
(declare-fun x19 () Real)
(declare-fun x20 () Real)
(declare-fun x21 () Real)
(declare-fun x22 () Real)
(declare-fun x23 () Real)
(declare-fun x24 () Real)
(declare-fun x25 () Real)
(declare-fun x26 () Real)
(declare-fun x27 () Real)
(declare-fun x28 () Real)
(declare-fun x29 () Real)
(declare-fun P0 () Bool)
(declare-fun P1 () Bool)
(declare-fun P2 () Bool)
(declare-fun P3 () Bool)
(declare-fun P4 () Bool)
(declare-fun P5 () Bool)
(declare-fun P6 () Bool)
(declare-fun P7 () Bool)
(declare-fun P8 () Bool)
(declare-fun P9 () Bool)
(declare-fun P10 () Bool)
(declare-fun P11 () Bool)
(declare-fun P12 () Bool)
(declare-fun P13 () Bool)
(declare-fun P14 () Bool)
(declare-fun P15 () Bool)
(declare-fun P16 () Bool)
(declare-fun P17 () Bool)
(declare-fun P18 () Bool)
(declare-fun P19 () Bool)
(declare-fun P20 () Bool)
(declare-fun P21 () Bool)
(declare-fun P22 () Bool)
(declare-fun P23 () Bool)
(declare-fun P24 () Bool)
(declare-fun P25 () Bool)
(declare-fun P26 () Bool)
(declare-fun P27 () Bool)
(declare-fun P28 () Bool)
(declare-fun P29 () Bool)
(assert (let ((?v_28 (f0_2 x13 x11)) (?v_146 (* 5 x17)) (?v_54 (- (- (* 28 x5) (* 13 x22)) (* 10 x3))) (?v_151 (f0_1 x11)) (?v_43 (- (+ (* 12 x4) (* 16 x9)) (* 29 x23))) (?v_58 (f0_1 x18))) (let ((?v_224 (f0_2 ?v_28 x7)) (?v_123 (f1_1 x26)) (?v_24 (f1_1 x18)) (?v_7 (f1_2 x25 x29)) (?v_203 (* 22 x13)) (?v_70 (f0_2 x7 x25)) (?v_6 (f1_1 x20)) (?v_69 (+ (- (* 26 x29) (* 15 x1)) (* 20 x3))) (?v_168 (f1_1 x3)) (?v_52 (f0_2 x4 x3)) (?v_80 (f1_1 x22))) (let ((?v_13 (f0_2 ?v_7 x7)) (?v_177 (f0_2 x9 x6)) (?v_166 (* 3 x4)) (?v_10 (* 13 x8))) (let ((?v_12 (+ (- (* 6 x18) ?v_10) (* 26 x1))) (?v_274 (f0_1 ?v_168)) (?v_35 (- (- (* 7 x17) (* 10 x22)) (* 25 x27))) (?v_126 (f0_1 x15))) (let ((?v_21 (f0_2 ?v_12 x21)) (?v_148 (+ (- (* 14 x26) (* 11 x5)) (* 29 x2)))) (let ((?v_95 (- (- (* 3 ?v_21) (* 10 ?v_69)) (* 26 ?v_70))) (?v_206 (- (+ (* 6 x0) (* 22 x20)) (* 19 x12))) (?v_150 (f0_2 x5 ?v_69))) (let ((?v_79 (f1_2 ?v_35 ?v_95)) (?v_165 (f1_2 x20 x9)) (?v_38 (f0_2 x20 x23)) (?v_11 (f0_2 x11 x21)) (?v_19 (- (+ (* 16 x17) (* 29 x20)) (* 5 x7))) (?v_20 (f1_2 x28 x25)) (?v_273 (f0_1 x22)) (?v_164 (- (+ (* 14 x6) (* 22 x27)) (* 8 x22))) (?v_103 (- (- (* 15 x20) (* 24 x17)) (* 11 x28))) (?v_29 (- (- (* 11 x29) (* 14 x7)) ?v_10)) (?v_96 (f0_2 x7 x22)) (?v_3 (f1_1 x6)) (?v_210 (< x20 15)) (?v_302 (< x13 21))) (let ((?v_340 (= ?v_273 ?v_274)) (?v_8 (< ?v_3 8)) (?v_104 (< (f0_2 x13 ?v_11) 9)) (?v_193 (< ?v_80 20)) (?v_346 (< ?v_19 0)) (?v_45 (= x7 ?v_35)) (?v_60 (< ?v_6 16)) (?v_202 (< ?v_95 17)) (?v_361 (< (f0_1 ?v_80) 18)) (?v_217 (< x10 23)) (?v_78 (< ?v_43 21)) (?v_169 (< ?v_148 7)) (?v_158 (< ?v_126 13)) (?v_17 (< ?v_21 5)) (?v_324 (< ?v_96 11)) (?v_386 (< ?v_206 0)) (?v_208 (< x6 0)) (?v_228 (< ?v_70 23)) (?v_239 (< ?v_274 14)) (?v_297 (= ?v_164 ?v_165)) (?v_205 (< (f0_2 x7 x21) 8)) (?v_310 (= x16 x19)) (?v_285 (< (- (+ (* 6 x14) (* 9 x11)) (* 26 x4)) 15)) (?v_27 (< x6 7)) (?v_157 (< ?v_150 12)) (?v_286 (= x3 x12)) (?v_186 (= ?v_54 ?v_70)) (?v_200 (= ?v_150 x4)) (?v_56 (< ?v_28 14)) (?v_92 (= ?v_79 x9)) (?v_61 (< ?v_38 1)) (?v_289 (< ?v_13 28)) (?v_15 (< x22 16)) (?v_132 (< x5 28)) (?v_253 (= ?v_165 ?v_96)) (?v_84 (= ?v_29 ?v_11)) (?v_344 (= (f1_2 x17 ?v_24) ?v_80)) (?v_33 (< ?v_123 18)) (?v_238 (< x8 3)) (?v_139 (< ?v_54 26)) (?v_167 (< ?v_38 25)) (?v_76 (< ?v_20 21)) (?v_276 (< ?v_21 7)) (?v_68 (< ?v_58 25)) (?v_234 (< ?v_151 24)) (?v_345 (< ?v_177 9)) (?v_265 (= ?v_3 (f1_1 x21))) (?v_89 (< ?v_224 22)) (?v_330 (< (f0_1 x21) 20)) (?v_77 (< x27 22)) (?v_374 (< ?v_58 18)) (?v_64 (= ?v_12 ?v_13)) (?v_98 (= ?v_43 ?v_273)) (?v_362 (< (f1_1 x7) 7)) (?v_335 (< (f0_2 x22 x26) 10)) (?v_229 (= ?v_148 x3)) (?v_391 (< ?v_13 14)) (?v_315 (< x17 18)) (?v_250 (not P9)) (?v_100 (not P20))) (let ((?v_191 (not ?v_15)) (?v_135 (not ?v_17)) (?v_102 (not ?v_344)) (?v_343 (not ?v_89)) (?v_53 (not ?v_8)) (?v_209 (not ?v_60)) (?v_112 (not ?v_104)) (?v_32 (not ?v_285)) (?v_71 (not P27)) (?v_357 (not ?v_33)) (?v_26 (not ?v_61)) (?v_85 (not ?v_64)) (?v_110 (not ?v_253)) (?v_125 (not P3)) (?v_198 (not ?v_45)) (?v_36 (not ?v_186)) (?v_367 (not ?v_346)) (?v_119 (not ?v_391)) (?v_358 (not P14)) (?v_147 (not P7)) (?v_230 (not ?v_335)) (?v_160 (not P15)) (?v_86 (not P1)) (?v_292 (not ?v_56)) (?v_307 (not P13)) (?v_65 (not P11)) (?v_359 (not P5)) (?v_256 (not ?v_374)) (?v_140 (not P8)) (?v_105 (not P25)) (?v_130 (not ?v_92)) (?v_117 (not P24)) (?v_235 (not ?v_76)) (?v_218 (not P21)) (?v_83 (not ?v_77)) (?v_181 (not P26)) (?v_128 (not ?v_205)) (?v_221 (not P4)) (?v_243 (not ?v_132)) (?v_93 (not ?v_84)) (?v_318 (not P2)) (?v_317 (not ?v_202)) (?v_245 (not ?v_139)) (?v_187 (not ?v_324)) (?v_227 (not ?v_98)) (?v_154 (not P23)) (?v_156 (not ?v_167)) (?v_207 (not ?v_68)) (?v_214 (not ?v_157)) (?v_172 (not P17)) (?v_269 (not ?v_228)) (?v_320 (not ?v_330)) (?v_219 (not ?v_200)) (?v_183 (not ?v_158)) (?v_328 (not P10)) (?v_354 (not ?v_297)) (?v_184 (not ?v_169)) (?v_179 (not ?v_345)) (?v_232 (not ?v_361)) (?v_213 (not ?v_362)) (?v_231 (not P6)) (?v_252 (not ?v_386)) (?v_260 (not ?v_208)) (?v_270 (not ?v_210)) (?v_321 (not ?v_315)) (?v_312 (not ?v_234)) (?v_272 (not ?v_193)) (?v_316 (not ?v_229)) (?v_282 (not ?v_238)) (?v_287 (not ?v_239)) (?v_375 (not P19)) (?v_306 (not P22)) (?v_280 (not ?v_265)) (?v_299 (not ?v_276)) (?v_348 (not P28)) (?v_365 (not P0)) (?v_304 (not ?v_289)) (?v_380 (not P16)) (?v_349 (not ?v_217)) (?v_331 (not ?v_286)) (?v_371 (not ?v_27)) (?v_355 (not P29)) (?v_377 (not P18)) (?v_388 (not ?v_310)) (?v_387 (not ?v_78)) (?v_393 (not ?v_340)) (?v_48 (+ ?v_203 (* 20 x10) (* 17 x8))) (?v_37 (+ (* 26 x5) (* 14 x15) (* 18 ?v_168)))) (let ((?v_39 (< ?v_37 25))) (let ((?v_133 (not ?v_39)) (?v_82 (< ?v_48 6)) (?v_149 (< ?v_37 20))) (let ((?v_347 (not ?v_149)) (?v_225 (f0_2 ?v_48 ?v_151))) (let ((?v_379 (< ?v_225 1))) (let ((?v_251 (not ?v_379)) (?v_333 (< ?v_225 11))) (let ((?v_266 (not ?v_333)) (?v_364 (not ?v_82)) (?v_23 (- (- (* (- 16) ?v_6) (* 6 ?v_13)) (* 15 x4)))) (let ((?v_40 (= x9 (- (+ (* (- 22) x25) (* 28 x29)) (* 10 ?v_23))))) (let ((?v_16 (not ?v_40)) (?v_4 (+ (- (* (- 13) x14) (* 3 x6)) (* 13 x19)))) (let ((?v_41 (< ?v_4 13)) (?v_118 (- (- (* (- 12) x26) (* 2 x22)) (* 25 x23)))) (let ((?v_134 (< ?v_118 (- 23))) (?v_1 (+ (- (* (- 24) x26) (* 23 x23)) (* 20 x14)))) (let ((?v_25 (- (+ (* 18 x16) (* 7 x24)) (* 5 ?v_1))) (?v_0 (- (- (* (- 5) x22) (* 24 x10)) (* 18 x4)))) (let ((?v_220 (- (- (* (- 11) ?v_19) (* 21 ?v_25)) (* 13 ?v_0)))) (let ((?v_9 (< ?v_220 19))) (let ((?v_47 (not ?v_9)) (?v_5 (< ?v_3 (- 23)))) (let ((?v_323 (not ?v_5)) (?v_2 (= ?v_0 (+ (- (* 26 ?v_69) (* 22 ?v_1)) (* 21 x9)))) (?v_22 (- (- (* (- 11) x14) (* 25 x1)) (* 12 x25)))) (let ((?v_44 (= (+ (* (- 14) x26) (* 6 x22) (* 10 x6)) ?v_22)) (?v_267 (not ?v_2)) (?v_14 (< (+ (* (- 17) x0) (* 11 x26) (* 2 x12)) 10)) (?v_384 (< (+ (- (* (- 14) x29) (* 15 x24)) (* 26 x17)) 28))) (let ((?v_241 (not ?v_384)) (?v_51 (+ (* (- 28) x13) (* 17 x12) (* 10 ?v_151)))) (let ((?v_116 (= ?v_51 x1))) (let ((?v_337 (not ?v_116)) (?v_67 (= ?v_103 ?v_4))) (let ((?v_294 (not ?v_67)) (?v_55 (< x28 (- 24))) (?v_88 (< ?v_126 (- 21))) (?v_339 (= (+ (- (* (- 24) ?v_48) (* 11 ?v_7)) (* 4 x11)) (f0_1 x8)))) (let ((?v_258 (not ?v_339)) (?v_180 (< (f1_1 x16) (- 13))) (?v_295 (< ?v_164 (- 8)))) (let ((?v_101 (not ?v_295)) (?v_31 (< (- (+ (* (- 14) x24) (* 17 x2)) ?v_146) (- 7))) (?v_212 (< x16 (- 13)))) (let ((?v_57 (not ?v_212)) (?v_18 (not ?v_14)) (?v_46 (+ (- (* (- 9) x3) (* 23 x11)) (* 7 x0)))) (let ((?v_97 (= ?v_46 ?v_37)) (?v_50 (< ?v_19 (- 11)))) (let ((?v_162 (not ?v_50)) (?v_49 (- (- (* (- 4) x25) (* 9 x5)) (* 11 x20)))) (let ((?v_113 (= ?v_49 (f1_1 ?v_20)))) (let ((?v_90 (not ?v_113)) (?v_236 (+ (- (* (- 10) x11) (* 24 x3)) (* 20 x4)))) (let ((?v_66 (= ?v_21 (f0_1 ?v_236))) (?v_59 (= ?v_22 ?v_23)) (?v_30 (- (+ (* (- 8) x0) (* 6 x7)) (* 26 x8)))) (let ((?v_87 (- (- (* 6 ?v_24) (* 9 x4)) (* 23 ?v_30)))) (let ((?v_263 (f1_2 ?v_87 ?v_25))) (let ((?v_136 (< ?v_263 27)) (?v_34 (* (- 9) x8))) (let ((?v_62 (< (- (+ ?v_34 (* 5 x13)) (* 16 x19)) (- 5))) (?v_115 (= ?v_29 ?v_30)) (?v_42 (< x2 (- 24)))) (let ((?v_204 (not ?v_42)) (?v_174 (< (f0_2 x5 x8) (- 8))) (?v_121 (+ (- (* (- 21) x27) (* 13 x17)) (* 8 x13)))) (let ((?v_161 (= ?v_121 ?v_206))) (let ((?v_107 (not ?v_161)) (?v_262 (< (- (+ (* (- 13) x0) (* 13 x1)) (* 16 x2)) (- 6)))) (let ((?v_175 (not ?v_262)) (?v_171 (+ ?v_34 (* 21 x22) (* 6 x26)))) (let ((?v_114 (< ?v_171 28))) (let ((?v_81 (not ?v_114)) (?v_111 (= ?v_35 (- (- (* (- 19) x7) ?v_166) (* 8 x2))))) (let ((?v_63 (not ?v_111)) (?v_192 (< (- (- (* (- 22) ?v_38) ?v_25) (* 15 x7)) (- 3)))) (let ((?v_237 (not ?v_192)) (?v_73 (- (+ (* (- 15) x18) (* 9 x15)) (* 26 x10)))) (let ((?v_293 (< ?v_73 (- 7)))) (let ((?v_216 (not ?v_293)) (?v_74 (not ?v_41)) (?v_75 (< ?v_177 (- 20)))) (let ((?v_91 (not ?v_75)) (?v_131 (not ?v_44)) (?v_72 (= ?v_52 ?v_46)) (?v_159 (< ?v_49 (- 2))) (?v_127 (< x4 (- 13))) (?v_153 (< ?v_51 (- 12))) (?v_120 (< (- (- (* (- 7) ?v_52) (* 9 ?v_58)) (* 22 x29)) (- 26)))) (let ((?v_138 (not ?v_120)) (?v_106 (< (f0_2 ?v_54 x3) (- 16))) (?v_129 (< ?v_24 (- 20))) (?v_188 (< x18 (- 19))) (?v_326 (not ?v_59)) (?v_99 (< x3 (- 12))) (?v_145 (not ?v_62)) (?v_197 (< ?v_23 11))) (let ((?v_124 (not ?v_197)) (?v_109 (< x10 (- 2))) (?v_143 (< ?v_73 (- 27)))) (let ((?v_301 (not ?v_143))) (let ((?v_383 (or ?v_301 ?v_117)) (?v_247 (< ?v_79 (- 8)))) (let ((?v_108 (not ?v_247)) (?v_257 (< ?v_80 (- 25))) (?v_296 (< ?v_23 13))) (let ((?v_199 (not ?v_296))) (let ((?v_284 (or ?v_199 ?v_82)) (?v_373 (< x27 (- 16)))) (let ((?v_254 (not ?v_373)) (?v_309 (< ?v_0 21))) (let ((?v_122 (not ?v_309)) (?v_144 (< (f0_2 x0 x23) (- 26))) (?v_223 (+ (* (- 6) x11) (* 16 x29) (* 9 x2)))) (let ((?v_376 (< ?v_223 (- 8)))) (let ((?v_283 (not ?v_376)) (?v_271 (< ?v_87 6)) (?v_94 (not ?v_88)) (?v_163 (< ?v_103 (- 15))) (?v_360 (not ?v_106)) (?v_222 (not ?v_97)) (?v_242 (< x22 (- 21)))) (let ((?v_152 (not ?v_242)) (?v_155 (not ?v_99)) (?v_141 (< x18 (- 17)))) (let ((?v_173 (not ?v_141)) (?v_142 (< ?v_51 7)) (?v_194 (< ?v_118 (- 27))) (?v_176 (< ?v_103 (- 8))) (?v_353 (< ?v_121 (- 5)))) (let ((?v_201 (not ?v_353)) (?v_319 (< ?v_123 (- 26))) (?v_264 (not ?v_127)) (?v_195 (not ?v_129)) (?v_259 (< (f0_2 x15 ?v_25) (- 23)))) (let ((?v_244 (not ?v_259)) (?v_268 (f0_2 ?v_58 ?v_49))) (let ((?v_313 (= ?v_268 ?v_20)) (?v_311 (< x27 (- 19)))) (let ((?v_137 (not ?v_311)) (?v_308 (< x27 (- 29))) (?v_215 (not ?v_142)) (?v_196 (< x20 (- 29))) (?v_211 (- (- (* (- 2) x20) (* 7 x11)) ?v_146))) (let ((?v_190 (= ?v_211 (f0_1 x25))) (?v_189 (< (+ (* (- 12) x27) (* 17 x3) (* 28 x11)) 2)) (?v_178 (< ?v_70 (- 20))) (?v_185 (not ?v_72)) (?v_332 (not ?v_159)) (?v_336 (not ?v_163)) (?v_341 (< (- (- ?v_166 (* 14 x8)) (* 20 x17)) (- 15)))) (let ((?v_170 (not ?v_341)) (?v_182 (< ?v_171 8)) (?v_288 (not ?v_174)) (?v_303 (< ?v_11 (- 2))) (?v_240 (not ?v_178)) (?v_385 (not ?v_180)) (?v_249 (not ?v_189)) (?v_334 (not ?v_190)) (?v_314 (< x16 (- 11))) (?v_233 (not ?v_176)) (?v_325 (not ?v_194)) (?v_298 (< ?v_48 (- 27)))) (let ((?v_226 (not ?v_298)) (?v_290 (not ?v_196)) (?v_356 (= (- (- (* 19 x19) ?v_203) (* 4 x3)) (- (- (* (- 15) x8) (* 10 x28)) (* 6 x6))))) (let ((?v_300 (not ?v_356)) (?v_255 (< ?v_211 9))) (let ((?v_248 (not ?v_255)) (?v_246 (< (f1_2 x17 x6) (- 3)))) (let ((?v_275 (not ?v_246)) (?v_305 (not ?v_109)) (?v_261 (< ?v_220 2))) (let ((?v_350 (not ?v_261)) (?v_291 (= ?v_223 (+ (- (* (- 18) ?v_49) (* 2 ?v_25)) (* 24 ?v_224)))) (?v_281 (< ?v_236 0)) (?v_279 (not ?v_144)) (?v_329 (not ?v_153)) (?v_370 (not ?v_257)) (?v_363 (not ?v_188)) (?v_277 (< ?v_263 22)) (?v_278 (< ?v_268 4))) (let ((?v_372 (not ?v_278)) (?v_390 (not ?v_271)) (?v_327 (not ?v_134)) (?v_366 (not ?v_277)) (?v_322 (not ?v_291)) (?v_392 (not ?v_66)) (?v_342 (not ?v_308)) (?v_369 (not ?v_182)) (?v_378 (not ?v_314)) (?v_338 (not ?v_319)) (?v_394 (or ?v_190 ?v_315)) (?v_351 (not ?v_115)) (?v_352 (not ?v_31)) (?v_368 (not ?v_303)) (?v_382 (not ?v_136)) (?v_381 (not ?v_55)) (?v_389 (not ?v_281))) (and (and (and (and (and (and (and (and (and (and (and (and (and (and (and (and (and (and (and (and (and (and (and (and (and (and (and (and (and (and (and (and (and (and (and (and (and (and (and (and (and (and (and (and (and (and (and (and (and (and (and (and (and (and (and (and (and (and (and (and (and (and (and (and (and (and (and (and (and (and (and (and (and (and (and (and (and (and (and (and (and (and (and (and (and (and (and (and (and (and (and (and (and (and (and (and (and (and (and (and (and (and (and (and (and (and (and (and (and (and (and (and (and (and (and (and (and (and (and (and (and (and (and (and (and (and (and (and (and (and (and (and (and (and (and (and (and (and (and (and (and (and (and (and (and (and (and (and (and (and (and (and (and (and (and (and (and (and (and (and (and (and (and (and (and (and (and (and (and (and (and (and (and (and (and (and (and (and (and (and (and (and (and (and (and (and (and (and (and (and (and (and (and (and (and (and (and (and (and (and (and (and (and (and (and (and (and (and (and (and (and (and (and (and (and (and (and (and (and (and (and (and (and (and (and (and (and (and (and (and (and (and (and (and (and (and (and (and (and (and (and (and (and (and (and (and (and (and (and (and (and (and (and (and (and (and (and (and (and (and (and (and (and (and (and (and (and (and (and (and (and (and (and (and (and (and (and (and (and (and (and (and (and (and (and (and (and (and (and (and (and (and (and (and (and (and (and (and (and (and (and (and (and (and (and (and (and (and (and (and (and (and (and (and (and (and (and (and (and (and (and (and (and (and (and (and (and (and (and (and (and (and (and (and (and (and (and (and (and (and (and (and (and (and (and (and (and (and (and (and (and (and (and (and (and (and (and (and (and (and (and (and (and (and (and (and (and (and (and (and (and (and (and (and (and (and (and (and (and (and (and (and (and (and (and (and (and (and (and (and (and (and (and (and (and (and (and (and (and (and (and (and (and (and (and (and (and (and (and (and (and (and (and (and (and (and (and (and (and (and (and (and (and (and (and (and (and (and (and (and (and (and (and (and (and (and (and (and (and (and (and (and (and (and (and (and (and (and (and (and (and (and (and (and (and (and (and (and (and (and (and (and (and (and (and (and (and (and (and (and (and (and (and (and (and (and (and (and (and (and (and (and (and (and (and (and (and (and (and (and (and (and (and (and (and (and (and (and (and (and (and (and (and (and (and (and (and (and (and (and (and (and (and (and (and (and (and (and (and (and (and (and (and (and (and (and (and (and (and (and (and (and (and (and (and (and (and (and (and (and (and (and (and (and (and (and (and (and (and (and (and (and (and (and (and (and (and (and (and (and (and (and (and (and (and (and (and (and (and (and (and (and (and (and (and (and (and (and (and (and (and (and (and (and (and (and (and (and (and (and (and (and (and (and (and (and (and (and (and (and (and (and (and (and (and (and (and (and (and (and (and (and (and (and (and (and (and (and (and (and (and (and (and (and (and (and (and (and (and (and (and (and (and (and (and (and (and (and (and (and (and (and (and (and (and (and (and (and (and (and (and (and (and (and (and (and (and (and (and (and (and (and (and (and (and (and (and (and (and (and (and (and (and (and (and (and (and (and (and (and (and (and (and (and (and (and (and (and (and (and (and (and (and (and (and (and (and (and (and (and (and (and (and (and (and (and (and (and (and (and (and (and (and (and (and (and (and (and (and (and (and (and (and (and (and (and (and (and (and (and (and (and (and (and (and (and (and (and (and (and (and (and (and (and (and (and (and (and (and (or (or ?v_16 ?v_250) ?v_41) (or (or ?v_100 ?v_134) ?v_191)) (or (or ?v_47 ?v_135) ?v_323)) (or (or ?v_2 ?v_102) ?v_44)) (or (or ?v_267 P7) ?v_14)) (or (or ?v_343 ?v_53) ?v_241)) (or (or ?v_337 ?v_294) ?v_55)) (or (or ?v_5 ?v_98) ?v_88)) (or (or ?v_209 ?v_112) ?v_32)) (or (or ?v_258 ?v_71) ?v_76)) (or (or ?v_27 ?v_180) ?v_357)) (or (or ?v_101 ?v_31) ?v_26)) (or (or ?v_8 P27) ?v_9)) (or (or ?v_57 P2) ?v_84)) (or (or ?v_85 ?v_110) ?v_18)) (or (or ?v_15 ?v_97) ?v_238)) (or (or ?v_125 ?v_16) P15)) (or (or ?v_17 ?v_18) ?v_198)) (or (or ?v_162 ?v_90) ?v_66)) (or (or ?v_59 P13) P23)) (or (or ?v_136 ?v_62) ?v_36)) (or (or ?v_26 ?v_27) ?v_56)) (or (or ?v_115 P10) P23)) (or (or ?v_31 P1) ?v_204)) (or (or ?v_32 ?v_33) ?v_174)) (or (or ?v_107 ?v_175) ?v_81)) (or (or ?v_63 ?v_36) ?v_39)) (or (or ?v_237 ?v_367) ?v_133)) (or (or ?v_40 ?v_216) ?v_74)) (or (or ?v_14 ?v_42) ?v_78)) (or (or ?v_31 ?v_91) ?v_131)) (or (or ?v_45 ?v_72) ?v_47)) (or (or ?v_8 ?v_119) ?v_217)) (or (or ?v_358 ?v_82) ?v_159)) (or (or ?v_50 ?v_147) ?v_127)) (or (or ?v_230 ?v_160) ?v_153)) (or (or ?v_138 P8) P29)) (or (or ?v_53 ?v_106) ?v_55)) (or (or ?v_86 ?v_292) ?v_57)) (or (or P2 P10) ?v_307)) (or (or ?v_65 ?v_310) ?v_68)) (or (or ?v_129 ?v_188) ?v_359)) (or (or ?v_229 ?v_326) ?v_256)) (or (or ?v_60 P14) ?v_210)) (or (or ?v_99 ?v_140) ?v_61)) (or (or ?v_105 P19) ?v_77)) (or (or ?v_145 ?v_63) ?v_64)) (or (or ?v_124 ?v_65) ?v_66)) (or (or ?v_67 ?v_109) ?v_68)) (or (or ?v_130 ?v_71) ?v_72)) (or ?v_383 ?v_74)) (or (or ?v_75 ?v_235) ?v_218)) (or (or ?v_83 ?v_78) ?v_108)) (or (or ?v_257 P3) ?v_181)) (or (or ?v_128 ?v_221) ?v_81)) (or ?v_284 ?v_254)) (or (or ?v_2 ?v_33) ?v_83)) (or (or ?v_243 P2) ?v_122)) (or (or ?v_84 ?v_85) ?v_208)) (or (or ?v_144 ?v_283) P21)) (or (or ?v_93 ?v_59) ?v_86)) (or (or ?v_63 ?v_271) ?v_94)) (or (or ?v_89 ?v_90) ?v_91)) (or (or ?v_74 ?v_92) ?v_72)) (or (or ?v_93 ?v_94) ?v_318)) (or (or ?v_317 P16) ?v_245)) (or (or ?v_89 ?v_187) ?v_97)) (or (or ?v_74 ?v_227) ?v_99)) (or (or ?v_100 ?v_101) ?v_102)) (or (or ?v_163 ?v_154) ?v_104)) (or (or ?v_105 ?v_360) ?v_193)) (or (or ?v_107 ?v_222) ?v_156)) (or (or ?v_71 ?v_108) ?v_109)) (or (or ?v_110 ?v_111) ?v_152)) (or (or ?v_155 ?v_107) ?v_173)) (or (or ?v_112 ?v_113) ?v_33)) (or (or ?v_71 ?v_114) ?v_115)) (or (or ?v_142 ?v_60) ?v_116)) (or (or ?v_117 ?v_194) ?v_119)) (or (or ?v_176 ?v_120) ?v_201)) (or (or ?v_122 ?v_101) ?v_207)) (or (or ?v_214 ?v_92) ?v_319)) (or (or ?v_109 ?v_124) ?v_50)) (or (or ?v_55 ?v_18) ?v_125)) (or (or ?v_158 ?v_264) ?v_2)) (or (or ?v_172 P21) ?v_128)) (or (or ?v_149 ?v_195) ?v_26)) (or (or ?v_244 ?v_130) P21)) (or (or ?v_313 ?v_131) P17)) (or (or ?v_137 ?v_90) ?v_132)) (or (or ?v_269 ?v_127) ?v_133)) (or (or ?v_134 ?v_129) ?v_135)) (or (or ?v_136 P17) ?v_137)) (or (or ?v_138 ?v_139) ?v_113)) (or (or ?v_308 ?v_140) ?v_141)) (or (or ?v_40 ?v_132) ?v_215)) (or (or ?v_143 ?v_130) ?v_144)) (or (or ?v_112 ?v_131) ?v_196)) (or (or ?v_145 P4) ?v_127)) (or (or ?v_190 ?v_320) ?v_111)) (or (or ?v_106 ?v_116) ?v_147)) (or (or ?v_85 ?v_18) P1)) (or (or ?v_169 ?v_135) ?v_347)) (or (or ?v_129 ?v_219) P12)) (or (or ?v_78 ?v_251) ?v_15)) (or (or ?v_152 ?v_153) ?v_154)) (or (or ?v_155 ?v_156) P26)) (or (or ?v_189 ?v_157) ?v_149)) (or (or ?v_183 ?v_178) ?v_159)) (or (or ?v_185 ?v_160) ?v_78)) (or (or P28 ?v_332) ?v_161)) (or (or ?v_162 ?v_67) ?v_102)) (or (or ?v_114 ?v_76) ?v_336)) (or (or ?v_328 ?v_47) ?v_354)) (or (or ?v_149 ?v_158) P7)) (or (or ?v_170 ?v_167) ?v_142)) (or (or ?v_88 ?v_68) ?v_135)) (or (or ?v_239 ?v_184) ?v_120)) (or (or ?v_302 ?v_170) ?v_182)) (or (or ?v_172 ?v_159) ?v_153)) (or (or ?v_173 ?v_288) ?v_303)) (or (or ?v_175 ?v_89) ?v_53)) (or (or ?v_105 ?v_66) ?v_176)) (or (or ?v_110 ?v_179) ?v_240)) (or (or ?v_179 ?v_385) ?v_42)) (or (or ?v_181 ?v_182) P0)) (or (or ?v_183 ?v_82) ?v_184)) (or (or ?v_81 ?v_185) ?v_142)) (or (or ?v_89 P17) ?v_133)) (or (or ?v_17 ?v_186) ?v_187)) (or (or ?v_163 ?v_98) ?v_188)) (or (or ?v_276 ?v_232) ?v_249)) (or (or ?v_98 ?v_42) ?v_107)) (or (or ?v_61 ?v_334) ?v_141)) (or (or ?v_74 ?v_191) ?v_154)) (or (or ?v_129 ?v_36) ?v_192)) (or (or ?v_101 ?v_314) ?v_233)) (or (or ?v_265 ?v_286) ?v_42)) (or (or ?v_193 ?v_325) P29)) (or (or ?v_226 ?v_195) ?v_290)) (or (or P29 ?v_191) ?v_170)) (or (or ?v_197 ?v_39) ?v_198)) (or (or ?v_213 ?v_31) ?v_199)) (or (or ?v_200 ?v_141) ?v_201)) (or (or ?v_187 ?v_202) ?v_145)) (or (or ?v_16 ?v_133) ?v_231)) (or (or ?v_119 ?v_201) ?v_127)) (or (or ?v_180 ?v_33) ?v_300)) (or (or ?v_143 ?v_173) ?v_204)) (or (or ?v_186 ?v_205) ?v_147)) (or (or P20 ?v_252) ?v_61)) (or (or ?v_207 ?v_260) ?v_209)) (or (or ?v_270 ?v_15) P29)) (or (or ?v_67 ?v_187) ?v_112)) (or (or ?v_321 ?v_98) ?v_199)) (or (or ?v_124 P26) ?v_114)) (or (or ?v_202 ?v_312) ?v_94)) (or (or ?v_133 ?v_248) ?v_275)) (or (or ?v_272 ?v_33) ?v_212)) (or (or ?v_32 ?v_213) ?v_31)) (or (or ?v_214 ?v_110) ?v_179)) (or (or P3 ?v_5) ?v_143)) (or (or ?v_215 ?v_102) ?v_213)) (or (or ?v_83 ?v_305) ?v_113)) (or (or ?v_138 ?v_216) ?v_197)) (or (or ?v_217 ?v_218) ?v_207)) (or (or ?v_219 P28) ?v_350)) (or (or ?v_289 ?v_140) ?v_221)) (or (or ?v_222 ?v_291) P17)) (or (or ?v_266 ?v_226) P16)) (or (or ?v_27 ?v_116) P5)) (or (or ?v_124 ?v_227) ?v_228)) (or (or ?v_213 ?v_141) ?v_45)) (or (or ?v_107 ?v_144) ?v_316)) (or (or P10 ?v_230) ?v_231)) (or (or ?v_232 ?v_233) ?v_234)) (or (or ?v_235 ?v_281) ?v_125)) (or (or ?v_237 ?v_231) ?v_282)) (or (or ?v_287 ?v_41) P15)) (or (or ?v_240 ?v_86) P12)) (or (or ?v_241 ?v_111) ?v_228)) (or (or ?v_242 ?v_233) ?v_84)) (or (or ?v_197 ?v_243) ?v_244)) (or (or ?v_39 ?v_245) ?v_130)) (or (or ?v_91 ?v_246) ?v_247)) (or (or ?v_59 ?v_134) P14)) (or (or ?v_248 ?v_152) ?v_215)) (or (or ?v_8 ?v_184) ?v_14)) (or (or ?v_89 ?v_249) P6)) (or (or ?v_250 ?v_74) ?v_67)) (or (or ?v_136 ?v_112) ?v_67)) (or (or ?v_63 ?v_89) ?v_251)) (or (or ?v_129 ?v_160) ?v_56)) (or (or ?v_252 ?v_18) ?v_279)) (or (or ?v_253 P15) ?v_218)) (or (or ?v_55 ?v_329) ?v_107)) (or (or ?v_77 ?v_251) ?v_194)) (or (or ?v_128 P3) ?v_120)) (or (or ?v_85 ?v_65) ?v_41)) (or (or ?v_254 P3) ?v_5)) (or (or ?v_152 ?v_32) ?v_197)) (or (or ?v_194 ?v_86) ?v_112)) (or (or ?v_255 ?v_249) ?v_14)) (or (or ?v_208 ?v_128) ?v_256)) (or (or ?v_156 ?v_174) P10)) (or (or ?v_370 ?v_159) ?v_245)) (or (or ?v_198 ?v_248) ?v_363)) (or (or ?v_258 ?v_109) ?v_259)) (or (or ?v_256 ?v_191) ?v_42)) (or (or ?v_260 ?v_375) ?v_26)) (or (or ?v_131 ?v_261) ?v_306)) (or (or ?v_170 ?v_5) ?v_262)) (or (or ?v_130 ?v_277) ?v_239)) (or (or ?v_264 ?v_189) ?v_53)) (or (or P3 ?v_158) ?v_74)) (or (or ?v_280 ?v_72) ?v_266)) (or (or ?v_267 P27) ?v_229)) (or (or ?v_216 ?v_99) ?v_144)) (or (or ?v_170 ?v_222) ?v_372)) (or (or ?v_269 ?v_235) ?v_136)) (or (or ?v_209 ?v_270) ?v_390)) (or (or ?v_107 ?v_272) ?v_267)) (or (or ?v_138 ?v_340) P23)) (or (or ?v_275 ?v_266) ?v_5)) (or (or ?v_231 ?v_39) ?v_327)) (or (or ?v_299 ?v_269) ?v_158)) (or (or ?v_366 ?v_173) ?v_62)) (or (or ?v_278 P18) ?v_279)) (or (or ?v_33 ?v_280) ?v_133)) (or (or ?v_83 ?v_281) P29)) (or (or ?v_282 ?v_27) ?v_237)) (or (or ?v_348 ?v_248) P23)) (or (or ?v_83 ?v_219) ?v_283)) (or (or ?v_157 P16) ?v_160)) (or ?v_284 ?v_365)) (or (or ?v_226 ?v_55) ?v_72)) (or (or ?v_285 ?v_286) ?v_189)) (or (or ?v_201 ?v_287) ?v_184)) (or (or ?v_190 ?v_112) ?v_209)) (or (or ?v_288 ?v_44) P25)) (or (or ?v_275 ?v_208) P25)) (or (or ?v_304 ?v_192) ?v_74)) (or (or ?v_290 P16) ?v_59)) (or (or ?v_322 ?v_45) ?v_292)) (or (or ?v_293 ?v_47) ?v_218)) (or (or P26 P26) ?v_294)) (or (or ?v_237 ?v_212) ?v_295)) (or (or P1 ?v_267) ?v_296)) (or (or ?v_297 ?v_298) ?v_200)) (or (or P25 ?v_182) ?v_170)) (or (or ?v_55 ?v_251) ?v_154)) (or (or ?v_299 ?v_300) ?v_201)) (or (or ?v_301 ?v_36) P12)) (or (or ?v_260 P12) ?v_207)) (or (or ?v_202 ?v_184) ?v_302)) (or (or ?v_134 ?v_243) ?v_122)) (or (or ?v_170 P9) ?v_108)) (or (or ?v_76 ?v_172) ?v_180)) (or (or ?v_190 ?v_303) ?v_279)) (or (or ?v_47 ?v_71) ?v_299)) (or (or ?v_244 ?v_304) ?v_107)) (or (or ?v_305 P28) P1)) (or (or ?v_169 ?v_143) ?v_245)) (or (or ?v_154 P25) ?v_364)) (or (or ?v_132 ?v_205) ?v_85)) (or (or ?v_298 ?v_63) ?v_94)) (or (or ?v_392 ?v_81) ?v_159)) (or (or P20 ?v_124) ?v_306)) (or (or P17 ?v_307) ?v_72)) (or (or ?v_342 ?v_81) ?v_76)) (or (or ?v_17 ?v_178) ?v_309)) (or (or ?v_88 ?v_185) ?v_245)) (or (or ?v_173 ?v_380) ?v_310)) (or (or ?v_222 ?v_207) ?v_311)) (or (or ?v_306 ?v_143) ?v_299)) (or (or ?v_304 ?v_124) ?v_102)) (or (or P27 ?v_145) ?v_264)) (or (or ?v_89 ?v_178) ?v_42)) (or (or ?v_312 ?v_60) ?v_40)) (or (or ?v_174 ?v_369) ?v_152)) (or (or P8 ?v_266) ?v_40)) (or (or ?v_187 ?v_186) ?v_115)) (or (or ?v_57 ?v_209) (not ?v_313))) (or (or ?v_50 ?v_26) ?v_217)) (or (or P26 ?v_32) P10)) (or (or ?v_134 ?v_276) ?v_32)) (or (or ?v_378 ?v_315) ?v_200)) (or (or ?v_231 ?v_170) ?v_300)) (or (or ?v_316 ?v_162) ?v_214)) (or (or ?v_317 ?v_349) ?v_318)) (or (or ?v_338 ?v_331) ?v_158)) (or (or P5 ?v_285) ?v_320)) (or (or ?v_212 ?v_290) ?v_170)) (or (or ?v_264 ?v_241) ?v_147)) (or (or ?v_214 ?v_147) ?v_321)) (or (or ?v_228 ?v_174) ?v_128)) (or ?v_394 ?v_149)) (or (or ?v_204 ?v_322) ?v_162)) (or (or ?v_371 ?v_267) ?v_323)) (or (or P6 ?v_74) ?v_232)) (or (or ?v_277 P17) ?v_324)) (or (or P11 ?v_147) ?v_61)) (or (or ?v_89 ?v_227) ?v_86)) (or (or ?v_314 ?v_200) ?v_258)) (or (or ?v_325 ?v_185) ?v_86)) (or (or ?v_238 ?v_326) ?v_281)) (or (or ?v_247 ?v_198) ?v_78)) (or (or P15 P11) ?v_261)) (or (or ?v_2 ?v_122) P5)) (or (or ?v_149 P28) ?v_355)) (or (or ?v_135 ?v_131) ?v_152)) (or (or ?v_319 ?v_305) ?v_327)) (or (or ?v_155 ?v_328) ?v_351)) (or (or ?v_119 ?v_155) P8)) (or (or ?v_329 ?v_204) ?v_294)) (or (or ?v_301 ?v_330) ?v_205)) (or (or ?v_179 ?v_238) ?v_157)) (or (or ?v_169 ?v_331) ?v_332)) (or (or ?v_116 ?v_329) ?v_219)) (or (or ?v_333 ?v_309) ?v_276)) (or (or ?v_270 ?v_181) ?v_158)) (or (or ?v_59 P17) ?v_334)) (or (or ?v_335 P7) ?v_50)) (or (or ?v_139 ?v_319) ?v_238)) (or (or ?v_210 ?v_112) ?v_205)) (or (or ?v_137 ?v_169) ?v_266)) (or (or ?v_336 ?v_329) ?v_294)) (or (or ?v_83 ?v_310) ?v_55)) (or (or ?v_337 ?v_248) ?v_338)) (or (or ?v_272 ?v_122) ?v_339)) (or (or ?v_68 ?v_159) ?v_340)) (or (or ?v_341 ?v_63) ?v_180)) (or (or P3 ?v_120) ?v_199)) (or (or ?v_300 ?v_264) ?v_331)) (or (or ?v_198 ?v_217) ?v_18)) (or (or ?v_311 ?v_336) ?v_300)) (or (or ?v_190 ?v_109) P3)) (or (or ?v_42 ?v_202) ?v_342)) (or (or ?v_5 ?v_343) ?v_258)) (or (or ?v_344 ?v_159) ?v_345)) (or (or ?v_174 ?v_346) ?v_295)) (or (or ?v_347 ?v_196) ?v_222)) (or (or ?v_181 ?v_348) P12)) (or (or ?v_337 ?v_250) ?v_313)) (or (or ?v_349 ?v_14) ?v_269)) (or (or ?v_317 ?v_304) ?v_331)) (or (or ?v_272 ?v_41) P13)) (or (or ?v_322 ?v_298) ?v_350)) (or (or ?v_75 ?v_92) ?v_2)) (or (or ?v_352 ?v_218) P2)) (or (or ?v_16 ?v_74) P26)) (or (or ?v_101 ?v_214) P7)) (or (or ?v_94 ?v_102) ?v_351)) (or (or ?v_352 ?v_114) P22)) (or (or ?v_132 ?v_93) P14)) (or (or ?v_304 ?v_353) ?v_47)) (or (or ?v_270 ?v_354) ?v_338)) (or (or ?v_191 ?v_355) ?v_128)) (or (or ?v_119 ?v_356) ?v_368)) (or (or ?v_41 ?v_143) ?v_331)) (or (or ?v_282 ?v_119) ?v_173)) (or (or ?v_56 ?v_137) ?v_115)) (or (or ?v_108 ?v_357) ?v_217)) (or (or ?v_304 ?v_358) ?v_219)) (or (or ?v_306 ?v_152) ?v_256)) (or (or ?v_189 P15) P7)) (or (or ?v_231 ?v_250) ?v_134)) (or (or ?v_259 ?v_256) ?v_246)) (or (or ?v_208 ?v_382) ?v_323)) (or (or ?v_163 ?v_359) ?v_16)) (or (or ?v_63 ?v_186) ?v_216)) (or (or ?v_218 ?v_330) ?v_230)) (or (or ?v_262 ?v_116) ?v_62)) (or (or ?v_104 ?v_149) ?v_276)) (or (or ?v_377 ?v_131) ?v_305)) (or (or P4 ?v_91) ?v_128)) (or (or ?v_360 ?v_140) ?v_333)) (or (or ?v_361 ?v_362) ?v_41)) (or (or ?v_154 ?v_200) ?v_2)) (or (or ?v_208 ?v_325) ?v_251)) (or (or ?v_93 ?v_262) ?v_313)) (or (or P15 ?v_363) ?v_122)) (or (or ?v_364 ?v_131) ?v_247)) (or (or ?v_139 ?v_129) ?v_40)) (or (or ?v_310 ?v_162) ?v_365)) (or (or ?v_299 ?v_352) ?v_142)) (or (or ?v_330 ?v_77) ?v_277)) (or (or ?v_209 ?v_101) ?v_353)) (or (or ?v_116 ?v_9) ?v_357)) (or (or ?v_366 ?v_282) ?v_367)) (or (or ?v_285 ?v_184) ?v_102)) (or (or ?v_119 ?v_304) ?v_41)) (or (or ?v_133 ?v_160) ?v_172)) (or (or ?v_283 ?v_110) ?v_105)) (or (or ?v_125 ?v_71) ?v_230)) (or (or ?v_342 ?v_77) ?v_314)) (or (or ?v_368 ?v_271) ?v_312)) (or (or ?v_248 ?v_369) ?v_370)) (or (or ?v_174 ?v_324) ?v_266)) (or (or ?v_142 ?v_197) ?v_106)) (or (or ?v_290 ?v_180) ?v_232)) (or (or ?v_15 ?v_325) ?v_297)) (or (or P19 ?v_139) ?v_66)) (or (or ?v_14 P19) ?v_365)) (or (or ?v_130 P17) ?v_186)) (or (or ?v_142 ?v_33) ?v_94)) (or (or ?v_226 P29) ?v_104)) (or (or ?v_312 ?v_32) ?v_326)) (or (or ?v_318 ?v_297) ?v_76)) (or (or P13 ?v_82) ?v_371)) (or (or ?v_264 ?v_130) ?v_120)) (or (or ?v_342 P15) ?v_372)) (or (or ?v_355 ?v_373) ?v_363)) (or (or ?v_117 ?v_207) ?v_285)) (or (or ?v_212 ?v_315) ?v_374)) (or (or ?v_5 ?v_356) ?v_241)) (or (or ?v_158 ?v_109) ?v_299)) (or (or ?v_26 ?v_302) ?v_157)) (or (or ?v_348 ?v_290) ?v_238)) (or (or ?v_108 ?v_89) ?v_62)) (or (or ?v_312 P9) ?v_299)) (or (or ?v_338 ?v_195) ?v_128)) (or (or ?v_375 ?v_303) ?v_221)) (or (or ?v_167 ?v_271) ?v_267)) (or (or ?v_293 ?v_269) ?v_348)) (or (or P24 ?v_130) P9)) (or (or ?v_299 ?v_91) ?v_189)) (or (or ?v_331 ?v_131) ?v_114)) (or (or ?v_255 ?v_302) ?v_200)) (or (or ?v_239 ?v_298) ?v_201)) (or (or ?v_327 ?v_329) ?v_246)) (or (or ?v_362 ?v_56) ?v_175)) (or (or ?v_322 ?v_355) ?v_289)) (or (or ?v_199 ?v_372) ?v_303)) (or (or ?v_76 ?v_56) ?v_94)) (or (or ?v_372 ?v_61) ?v_83)) (or (or ?v_153 ?v_125) ?v_100)) (or (or ?v_241 ?v_63) ?v_62)) (or (or ?v_301 ?v_108) ?v_155)) (or (or ?v_141 ?v_324) P10)) (or (or P22 ?v_376) P18)) (or (or ?v_317 ?v_275) P3)) (or (or ?v_162 ?v_377) ?v_129)) (or (or ?v_137 ?v_245) ?v_324)) (or (or ?v_227 ?v_230) ?v_135)) (or (or ?v_369 ?v_149) P2)) (or (or ?v_309 ?v_235) ?v_378)) (or (or P0 ?v_334) P21)) (or (or ?v_181 ?v_134) ?v_14)) (or (or ?v_120 ?v_388) ?v_53)) (or (or ?v_60 ?v_232) ?v_65)) (or (or ?v_163 ?v_340) ?v_60)) (or (or ?v_182 ?v_379) ?v_294)) (or (or ?v_191 ?v_367) P13)) (or (or ?v_91 ?v_341) ?v_321)) (or (or ?v_228 ?v_270) ?v_202)) (or (or ?v_102 ?v_99) ?v_247)) (or (or (not ?v_302) ?v_109) ?v_251)) (or (or ?v_345 ?v_147) ?v_212)) (or (or ?v_330 ?v_101) ?v_122)) (or (or ?v_381 ?v_134) ?v_90)) (or (or ?v_193 ?v_302) ?v_368)) (or (or ?v_254 ?v_361) ?v_370)) (or (or ?v_218 ?v_336) ?v_380)) (or (or ?v_381 ?v_33) P0)) (or (or ?v_248 ?v_193) P13)) (or (or ?v_366 P13) ?v_26)) (or (or ?v_389 ?v_296) ?v_279)) (or (or ?v_108 ?v_382) ?v_267)) (or (or P3 ?v_78) ?v_255)) (or (or ?v_196 ?v_290) ?v_160)) (or (or ?v_160 ?v_152) P23)) (or ?v_383 ?v_27)) (or (or ?v_191 ?v_384) ?v_350)) (or (or ?v_65 ?v_176) ?v_300)) (or (or P18 ?v_287) ?v_173)) (or (or ?v_345 ?v_140) ?v_286)) (or (or ?v_387 ?v_325) ?v_124)) (or (or ?v_230 ?v_102) P0)) (or (or ?v_92 ?v_235) ?v_93)) (or (or ?v_104 ?v_360) ?v_234)) (or (or ?v_199 ?v_8) ?v_186)) (or (or ?v_342 ?v_266) ?v_316)) (or (or ?v_319 ?v_217) ?v_312)) (or (or ?v_373 ?v_320) P24)) (or (or ?v_282 ?v_359) ?v_253)) (or (or ?v_317 ?v_250) ?v_114)) (or (or ?v_384 ?v_337) ?v_342)) (or (or ?v_143 ?v_53) ?v_186)) (or (or ?v_56 ?v_311) ?v_163)) (or (or ?v_255 ?v_65) ?v_371)) (or (or ?v_384 ?v_326) P7)) (or (or P15 ?v_154) P25)) (or (or ?v_255 ?v_116) ?v_256)) (or (or ?v_235 ?v_343) ?v_292)) (or (or ?v_208 ?v_53) ?v_319)) (or (or ?v_361 P14) ?v_264)) (or (or P17 ?v_182) P13)) (or (or ?v_275 ?v_100) ?v_385)) (or (or ?v_201 ?v_147) ?v_66)) (or (or ?v_312 ?v_144) ?v_119)) (or (or ?v_76 ?v_362) ?v_306)) (or (or ?v_375 ?v_386) ?v_84)) (or (or ?v_216 ?v_255) ?v_15)) (or (or ?v_42 ?v_267) P29)) (or (or P28 ?v_137) ?v_72)) (or (or ?v_317 ?v_325) ?v_75)) (or (or ?v_366 ?v_271) ?v_152)) (or (or ?v_55 P26) ?v_33)) (or (or ?v_251 ?v_387) ?v_334)) (or (or P12 ?v_201) P21)) (or (or ?v_356 ?v_36) ?v_50)) (or (or ?v_125 ?v_307) ?v_32)) (or (or ?v_301 P12) ?v_36)) (or (or ?v_76 ?v_276) P28)) (or (or ?v_388 ?v_105) ?v_104)) (or (or ?v_333 ?v_110) ?v_331)) (or (or ?v_285 ?v_299) ?v_214)) (or (or ?v_133 ?v_348) ?v_186)) (or (or ?v_250 ?v_346) ?v_372)) (or (or ?v_82 ?v_241) ?v_292)) (or (or ?v_92 ?v_113) ?v_145)) (or (or ?v_204 ?v_92) ?v_27)) (or (or ?v_97 ?v_180) ?v_239)) (or (or ?v_105 P29) ?v_281)) (or (or ?v_304 ?v_331) ?v_252)) (or (or ?v_238 ?v_74) ?v_245)) (or (or ?v_275 ?v_44) ?v_156)) (or (or ?v_295 ?v_255) ?v_348)) (or (or ?v_182 ?v_349) ?v_323)) (or (or ?v_222 ?v_60) ?v_250)) (or (or ?v_349 ?v_41) ?v_135)) (or (or ?v_125 ?v_144) ?v_359)) (or (or ?v_250 ?v_228) ?v_183)) (or (or ?v_189 ?v_381) ?v_199)) (or (or ?v_68 ?v_197) ?v_320)) (or (or ?v_200 ?v_235) ?v_194)) (or (or P10 ?v_98) (not P12))) (or (or ?v_294 ?v_60) ?v_208)) (or (or P23 ?v_101) ?v_254)) (or (or ?v_233 ?v_88) ?v_290)) (or (or ?v_228 ?v_296) ?v_260)) (or (or ?v_367 ?v_100) ?v_288)) (or (or ?v_214 ?v_153) ?v_131)) (or (or ?v_92 ?v_307) P15)) (or (or ?v_82 ?v_254) ?v_143)) (or (or ?v_136 ?v_169) ?v_97)) (or (or ?v_155 ?v_249) ?v_285)) (or (or ?v_74 ?v_50) P10)) (or (or ?v_370 ?v_81) ?v_213)) (or (or ?v_149 P22) ?v_266)) (or (or ?v_40 ?v_88) ?v_231)) (or (or ?v_226 ?v_32) ?v_60)) (or (or ?v_36 ?v_303) ?v_289)) (or (or ?v_162 ?v_65) ?v_74)) (or (or ?v_277 ?v_350) ?v_161)) (or (or ?v_294 ?v_317) ?v_388)) (or (or ?v_141 ?v_334) ?v_186)) (or (or ?v_386 ?v_336) ?v_207)) (or (or ?v_252 ?v_270) ?v_244)) (or (or ?v_334 ?v_208) ?v_27)) (or (or ?v_178 ?v_389) ?v_55)) (or (or ?v_257 ?v_276) ?v_159)) (or (or ?v_393 ?v_72) ?v_154)) (or (or ?v_373 ?v_189) P7)) (or (or ?v_300 ?v_234) ?v_379)) (or (or ?v_154 ?v_179) ?v_156)) (or (or ?v_234 ?v_153) ?v_157)) (or (or ?v_248 ?v_133) ?v_360)) (or (or ?v_374 ?v_348) ?v_295)) (or (or ?v_102 ?v_352) ?v_262)) (or (or P20 ?v_83) ?v_135)) (or (or P21 ?v_246) ?v_384)) (or (or P17 ?v_192) ?v_161)) (or (or ?v_329 ?v_281) ?v_83)) (or (or ?v_240 ?v_195) ?v_388)) (or (or ?v_53 ?v_255) P22)) (or (or ?v_245 ?v_155) P0)) (or (or ?v_229 ?v_327) P18)) (or (or ?v_337 ?v_134) ?v_92)) (or (or ?v_161 ?v_230) ?v_216)) (or (or ?v_308 ?v_219) P23)) (or (or ?v_277 ?v_351) ?v_122)) (or (or ?v_5 P5) ?v_210)) (or (or ?v_61 ?v_170) ?v_57)) (or (or ?v_380 ?v_135) ?v_120)) (or (or ?v_232 ?v_214) ?v_213)) (or (or ?v_386 P25) ?v_345)) (or (or ?v_210 ?v_181) P5)) (or (or P10 ?v_130) ?v_367)) (or (or ?v_189 ?v_77) ?v_153)) (or (or ?v_5 ?v_175) P16)) (or (or ?v_214 ?v_244) ?v_390)) (or (or ?v_210 ?v_143) ?v_162)) (or (or ?v_381 P22) ?v_174)) (or (or ?v_362 P2) ?v_259)) (or (or ?v_251 ?v_315) ?v_85)) (or (or ?v_18 ?v_326) ?v_209)) (or (or ?v_100 ?v_269) ?v_108)) (or (or ?v_380 P9) ?v_141)) (or (or ?v_329 ?v_185) P28)) (or (or P28 P10) ?v_325)) (or (or ?v_230 ?v_119) ?v_217)) (or (or ?v_40 ?v_91) ?v_226)) (or (or P3 ?v_191) ?v_382)) (or (or ?v_193 ?v_214) ?v_252)) (or (or ?v_317 ?v_337) P11)) (or (or ?v_391 ?v_47) ?v_173)) (or (or ?v_75 ?v_8) ?v_341)) (or (or ?v_66 ?v_333) ?v_226)) (or (or ?v_295 ?v_143) ?v_384)) (or (or ?v_358 ?v_307) ?v_190)) (or (or ?v_194 ?v_174) ?v_301)) (or (or ?v_15 ?v_392) ?v_117)) (or (or ?v_352 ?v_298) ?v_133)) (or (or ?v_365 ?v_327) ?v_31)) (or (or ?v_245 ?v_343) ?v_242)) (or (or ?v_71 ?v_134) ?v_196)) (or (or ?v_349 ?v_279) ?v_371)) (or (or ?v_130 P5) P3)) (or (or ?v_329 ?v_356) ?v_370)) (or (or ?v_361 ?v_346) P13)) (or (or ?v_5 ?v_264) ?v_385)) (or (or ?v_325 ?v_322) P15)) (or (or P13 P6) ?v_303)) (or (or ?v_375 ?v_329) ?v_186)) (or (or P3 ?v_377) ?v_169)) (or (or ?v_344 ?v_239) ?v_386)) (or (or ?v_242 ?v_109) ?v_162)) (or (or ?v_374 ?v_108) ?v_88)) (or (or ?v_176 ?v_392) ?v_42)) (or (or P24 ?v_187) ?v_307)) (or (or ?v_387 ?v_312) ?v_124)) (or (or ?v_229 ?v_197) ?v_298)) (or (or ?v_159 ?v_308) ?v_31)) (or (or ?v_243 ?v_348) ?v_170)) (or (or ?v_106 ?v_36) ?v_292)) (or (or ?v_393 ?v_94) ?v_160)) (or (or ?v_99 ?v_212) ?v_344)) (or (or ?v_200 ?v_262) ?v_40)) (or (or P24 ?v_370) ?v_270)) (or (or ?v_279 ?v_336) ?v_18)) (or (or P10 ?v_280) ?v_31)) (or (or ?v_163 ?v_291) ?v_90)) (or (or ?v_280 ?v_90) P6)) (or (or ?v_93 ?v_382) ?v_300)) (or (or ?v_204 ?v_347) ?v_100)) (or (or ?v_282 ?v_370) ?v_232)) (or (or ?v_352 ?v_155) ?v_365)) (or (or ?v_226 P28) ?v_57)) (or (or ?v_104 ?v_161) ?v_145)) (or (or ?v_72 ?v_139) ?v_193)) (or (or ?v_257 ?v_309) ?v_198)) (or (or ?v_352 ?v_304) P7)) (or (or ?v_285 ?v_339) ?v_366)) (or (or ?v_334 ?v_109) ?v_392)) (or (or ?v_234 ?v_243) ?v_198)) (or (or ?v_369 ?v_256) ?v_163)) (or (or ?v_15 ?v_336) ?v_381)) (or (or ?v_17 ?v_161) P17)) (or (or ?v_372 P11) ?v_102)) (or (or ?v_304 ?v_370) ?v_314)) (or (or ?v_346 ?v_213) ?v_97)) (or (or ?v_132 ?v_389) ?v_217)) (or (or ?v_335 ?v_130) ?v_375)) (or (or ?v_294 ?v_315) ?v_184)) (or (or ?v_363 ?v_280) ?v_308)) (or (or ?v_209 P8) ?v_179)) (or (or ?v_101 ?v_144) ?v_192)) (or (or ?v_60 ?v_332) ?v_133)) (or (or ?v_16 ?v_384) ?v_104)) (or (or ?v_369 ?v_387) ?v_379)) (or (or ?v_301 ?v_71) ?v_277)) (or (or ?v_312 ?v_132) ?v_55)) (or (or P9 ?v_260) ?v_306)) (or (or ?v_132 ?v_170) ?v_344)) (or (or ?v_272 ?v_86) ?v_27)) (or (or ?v_253 ?v_40) ?v_8)) (or (or ?v_210 ?v_304) ?v_306)) (or (or ?v_115 P21) ?v_187)) (or (or ?v_301 ?v_149) ?v_186)) (or ?v_394 ?v_61)) (or (or ?v_173 ?v_233) ?v_63)) (or (or ?v_308 ?v_194) ?v_336)) (or (or ?v_154 ?v_317) ?v_15)) (or (or ?v_202 ?v_88) ?v_74)) (or (or ?v_99 ?v_320) P1)) (or (or ?v_182 ?v_207) ?v_32)) (or (or P6 ?v_83) ?v_27)) (or (or ?v_367 ?v_85) ?v_380)) (or (or ?v_279 ?v_338) ?v_179)) (or (or ?v_311 P2) ?v_391)) (or (or ?v_252 ?v_315) ?v_9)) (or (or ?v_137 P18) ?v_308)) (or (or P15 ?v_106) ?v_290)) (or (or ?v_386 ?v_275) ?v_109)) (or (or ?v_204 ?v_344) ?v_163)) (or (or ?v_278 ?v_147) ?v_154)) (or (or ?v_372 ?v_154) ?v_191)) (or (or ?v_114 ?v_374) ?v_218)) (or (or ?v_76 ?v_159) ?v_113)) (or (or ?v_385 ?v_351) P15)) (or (or ?v_116 ?v_115) ?v_50)) (or (or P21 ?v_201) ?v_158)) (or (or ?v_317 ?v_302) ?v_208)) (or (or ?v_26 ?v_357) ?v_388)) (or (or ?v_68 P17) P9)) (or (or ?v_316 P4) ?v_56)) (or (or ?v_314 P18) ?v_329)) (or (or ?v_312 ?v_67) ?v_379)) (or (or ?v_45 ?v_154) ?v_8)) (or (or ?v_214 ?v_368) ?v_216)) (or (or ?v_17 ?v_350) ?v_232)) (or (or ?v_317 ?v_65) ?v_392)) (or (or ?v_132 ?v_366) ?v_127)) (or (or ?v_347 ?v_332) ?v_184)) (or (or ?v_326 P13) ?v_14)) (or (or ?v_197 ?v_75) ?v_186)) (or (or ?v_377 ?v_107) ?v_214)) (or (or ?v_231 ?v_331) ?v_314)) (or (or ?v_382 ?v_154) ?v_78)) (or (or ?v_162 ?v_286) ?v_303)) (or (or P25 ?v_332) ?v_303)) (or (or P26 ?v_308) ?v_252)) (or (or ?v_292 ?v_138) ?v_253)) (or (or ?v_50 ?v_88) ?v_195)) (or (or ?v_377 ?v_275) P10)) (or (or ?v_147 ?v_200) P10)) (or (or ?v_135 ?v_351) ?v_276)) (or (or ?v_290 ?v_369) ?v_222)) (or (or P4 P1) ?v_59)) (or (or ?v_138 ?v_375) ?v_230)) (or (or ?v_44 ?v_355) ?v_393)) (or (or ?v_219 ?v_55) ?v_50)) (or (or ?v_229 P12) ?v_188)) (or (or ?v_82 ?v_355) ?v_159)) (or (or ?v_130 ?v_311) ?v_214)) (or (or ?v_194 ?v_144) ?v_188)) (or (or ?v_93 ?v_111) P23)) (or (or ?v_130 ?v_139) ?v_319)) (or (or ?v_317 ?v_330) ?v_301)) (or (or ?v_39 ?v_44) ?v_104)) (or (or ?v_311 ?v_308) ?v_280)) (or (or ?v_192 ?v_257) ?v_124)) (or (or ?v_209 ?v_330) ?v_120)) (or (or ?v_57 ?v_350) ?v_75)) (or (or ?v_187 ?v_297) ?v_5)) (or (or ?v_317 ?v_41) ?v_292)) (or (or P19 ?v_83) ?v_16)) (or (or ?v_172 ?v_42) ?v_315))))))))))))))))))))))))))))))))))))))))))))))))))))))))))))))))))))))))))))))))
(check-sat)
(exit)
